(set-logic QF_S)
(declare-fun var0 () String)
(assert (RegexIn var0 (RegexConcat (RegexStar (RegexStar (Str2Reg "0"))) (RegexConcat (RegexStar (RegexPlus (Str2Reg "1"))) (RegexConcat (RegexUnion (RegexUnion (Str2Reg "222") (Str2Reg "33")) (RegexUnion (Str2Reg "44") (Str2Reg "555"))) (RegexConcat (RegexStar (RegexPlus (Str2Reg "666"))) (RegexConcat (RegexPlus (RegexPlus (Str2Reg "777"))) (RegexConcat (RegexPlus (RegexStar (Str2Reg "888"))) (RegexConcat (RegexStar (RegexUnion (Str2Reg "9") (Str2Reg "aa"))) (RegexConcat (RegexUnion (RegexStar (Str2Reg "b")) (RegexStar (Str2Reg "ccc"))) (RegexConcat (RegexStar (RegexUnion (Str2Reg "dd") (Str2Reg "eee"))) (RegexConcat (RegexPlus (RegexUnion (Str2Reg "ff") (Str2Reg "g"))) (RegexConcat (RegexPlus (RegexUnion (Str2Reg "hh") (Str2Reg "ii"))) (RegexConcat (RegexPlus (RegexPlus (Str2Reg "jj"))) (RegexConcat (RegexStar (RegexPlus (Str2Reg "kk"))) (RegexConcat (RegexPlus (RegexStar (Str2Reg "l"))) (RegexConcat (RegexPlus (RegexUnion (Str2Reg "mm") (Str2Reg "n"))) (RegexConcat (RegexPlus (RegexPlus (Str2Reg "o"))) (RegexConcat (RegexPlus (RegexStar (Str2Reg "ppp"))) (RegexConcat (RegexStar (RegexPlus (Str2Reg "qq"))) (RegexConcat (RegexUnion (RegexStar (Str2Reg "r")) (RegexStar (Str2Reg "sss"))) (RegexConcat (RegexUnion (RegexPlus (Str2Reg "tt")) (RegexPlus (Str2Reg "u"))) (RegexConcat (RegexStar (RegexPlus (Str2Reg "vv"))) (RegexConcat (RegexStar (RegexStar (Str2Reg "ww"))) (RegexConcat (RegexStar (RegexStar (Str2Reg "xx"))) (RegexConcat (RegexPlus (RegexPlus (Str2Reg "y"))) (RegexConcat (RegexPlus (RegexPlus (Str2Reg "z"))) (RegexConcat (RegexPlus (RegexStar (Str2Reg "A"))) (RegexConcat (RegexStar (RegexStar (Str2Reg "BB"))) (RegexConcat (RegexPlus (RegexUnion (Str2Reg "C") (Str2Reg "DDD"))) (RegexConcat (RegexStar (RegexUnion (Str2Reg "EE") (Str2Reg "F"))) (RegexConcat (RegexUnion (RegexUnion (Str2Reg "GG") (Str2Reg "H")) (RegexUnion (Str2Reg "I") (Str2Reg "JJ"))) (RegexConcat (RegexUnion (RegexStar (Str2Reg "KKK")) (RegexStar (Str2Reg "L"))) (RegexConcat (RegexUnion (RegexPlus (Str2Reg "MMM")) (RegexPlus (Str2Reg "NN"))) (RegexConcat (RegexUnion (RegexPlus (Str2Reg "OOO")) (RegexPlus (Str2Reg "P"))) (RegexConcat (RegexPlus (RegexStar (Str2Reg "Q"))) (RegexConcat (RegexPlus (RegexPlus (Str2Reg "RR"))) (RegexConcat (RegexUnion (RegexStar (Str2Reg "SS")) (RegexStar (Str2Reg "TTT"))) (RegexConcat (RegexPlus (RegexStar (Str2Reg "U"))) (RegexConcat (RegexUnion (RegexStar (Str2Reg "VVV")) (RegexStar (Str2Reg "WW"))) (RegexConcat (RegexStar (RegexPlus (Str2Reg "X"))) (RegexConcat (RegexStar (RegexStar (Str2Reg "YY"))) (RegexConcat (RegexPlus (RegexStar (Str2Reg "ZZ"))) (RegexConcat (RegexStar (RegexUnion (Str2Reg "!!!") (Str2Reg "\"\"\""))) (RegexConcat (RegexStar (RegexStar (Str2Reg "##"))) (RegexConcat (RegexStar (RegexStar (Str2Reg "$"))) (RegexConcat (RegexPlus (RegexStar (Str2Reg "%"))) (RegexConcat (RegexUnion (RegexStar (Str2Reg "&&&")) (RegexStar (Str2Reg "''"))) (RegexConcat (RegexUnion (RegexUnion (Str2Reg "(") (Str2Reg "))")) (RegexUnion (Str2Reg "***") (Str2Reg "++"))) (RegexConcat (RegexPlus (RegexPlus (Str2Reg ",,,"))) (RegexConcat (RegexUnion (RegexUnion (Str2Reg "--") (Str2Reg "...")) (RegexUnion (Str2Reg "///") (Str2Reg "::"))) (RegexConcat (RegexStar (RegexStar (Str2Reg ";;;"))) (RegexConcat (RegexStar (RegexStar (Str2Reg "<<"))) (RegexConcat (RegexStar (RegexUnion (Str2Reg "==") (Str2Reg ">>"))) (RegexConcat (RegexPlus (RegexStar (Str2Reg "???"))) (RegexConcat (RegexPlus (RegexPlus (Str2Reg "@"))) (RegexConcat (RegexUnion (RegexPlus (Str2Reg "[[")) (RegexPlus (Str2Reg "\\\\\\"))) (RegexConcat (RegexStar (RegexStar (Str2Reg "]]"))) (RegexConcat (RegexStar (RegexPlus (Str2Reg "^^^"))) (RegexConcat (RegexPlus (RegexStar (Str2Reg "___"))) (RegexConcat (RegexPlus (RegexStar (Str2Reg "```"))) (RegexConcat (RegexUnion (RegexUnion (Str2Reg "{{{") (Str2Reg "||")) (RegexUnion (Str2Reg "}}}") (Str2Reg "~"))) (RegexConcat (RegexPlus (RegexUnion (Str2Reg "0") (Str2Reg "111"))) (RegexConcat (RegexStar (RegexPlus (Str2Reg "22"))) (RegexConcat (RegexPlus (RegexUnion (Str2Reg "33") (Str2Reg "4"))) (RegexConcat (RegexUnion (RegexPlus (Str2Reg "555")) (RegexPlus (Str2Reg "666"))) (RegexConcat (RegexStar (RegexUnion (Str2Reg "77") (Str2Reg "88"))) (RegexConcat (RegexStar (RegexPlus (Str2Reg "9"))) (RegexConcat (RegexUnion (RegexStar (Str2Reg "a")) (RegexStar (Str2Reg "b"))) (RegexConcat (RegexStar (RegexPlus (Str2Reg "cc"))) (RegexConcat (RegexPlus (RegexUnion (Str2Reg "ddd") (Str2Reg "e"))) (RegexConcat (RegexUnion (RegexPlus (Str2Reg "fff")) (RegexPlus (Str2Reg "ggg"))) (RegexConcat (RegexStar (RegexStar (Str2Reg "hh"))) (RegexConcat (RegexStar (RegexUnion (Str2Reg "ii") (Str2Reg "jj"))) (RegexConcat (RegexPlus (RegexUnion (Str2Reg "kkk") (Str2Reg "l"))) (RegexConcat (RegexPlus (RegexStar (Str2Reg "mmm"))) (RegexConcat (RegexPlus (RegexPlus (Str2Reg "n"))) (RegexStar (RegexPlus (Str2Reg "o"))))))))))))))))))))))))))))))))))))))))))))))))))))))))))))))))))))))))))))))))
(assert (not (RegexIn var0 (RegexConcat (RegexPlus (RegexStar (Str2Reg "0"))) (RegexConcat (RegexStar (RegexUnion (Str2Reg "1") (Str2Reg "22"))) (RegexConcat (RegexStar (RegexUnion (Str2Reg "33") (Str2Reg "4"))) (RegexConcat (RegexUnion (RegexUnion (Str2Reg "5") (Str2Reg "666")) (RegexUnion (Str2Reg "7") (Str2Reg "8"))) (RegexConcat (RegexStar (RegexStar (Str2Reg "999"))) (RegexConcat (RegexStar (RegexUnion (Str2Reg "aaa") (Str2Reg "bbb"))) (RegexConcat (RegexPlus (RegexStar (Str2Reg "cc"))) (RegexConcat (RegexUnion (RegexStar (Str2Reg "d")) (RegexStar (Str2Reg "ee"))) (RegexConcat (RegexStar (RegexPlus (Str2Reg "ff"))) (RegexConcat (RegexPlus (RegexStar (Str2Reg "gg"))) (RegexConcat (RegexUnion (RegexPlus (Str2Reg "hhh")) (RegexPlus (Str2Reg "iii"))) (RegexConcat (RegexUnion (RegexUnion (Str2Reg "jjj") (Str2Reg "kkk")) (RegexUnion (Str2Reg "lll") (Str2Reg "m"))) (RegexConcat (RegexUnion (RegexPlus (Str2Reg "nn")) (RegexPlus (Str2Reg "oo"))) (RegexConcat (RegexStar (RegexPlus (Str2Reg "pp"))) (RegexConcat (RegexStar (RegexUnion (Str2Reg "qq") (Str2Reg "r"))) (RegexConcat (RegexStar (RegexPlus (Str2Reg "s"))) (RegexConcat (RegexPlus (RegexUnion (Str2Reg "t") (Str2Reg "uu"))) (RegexConcat (RegexUnion (RegexUnion (Str2Reg "vvv") (Str2Reg "www")) (RegexUnion (Str2Reg "xxx") (Str2Reg "yyy"))) (RegexConcat (RegexUnion (RegexUnion (Str2Reg "zz") (Str2Reg "AA")) (RegexUnion (Str2Reg "B") (Str2Reg "C"))) (RegexConcat (RegexUnion (RegexStar (Str2Reg "DD")) (RegexStar (Str2Reg "EE"))) (RegexConcat (RegexPlus (RegexPlus (Str2Reg "FF"))) (RegexConcat (RegexStar (RegexUnion (Str2Reg "G") (Str2Reg "H"))) (RegexConcat (RegexPlus (RegexUnion (Str2Reg "II") (Str2Reg "JJJ"))) (RegexConcat (RegexStar (RegexStar (Str2Reg "KKK"))) (RegexConcat (RegexUnion (RegexPlus (Str2Reg "LLL")) (RegexPlus (Str2Reg "MMM"))) (RegexConcat (RegexPlus (RegexPlus (Str2Reg "NNN"))) (RegexConcat (RegexStar (RegexPlus (Str2Reg "OOO"))) (RegexConcat (RegexPlus (RegexUnion (Str2Reg "PPP") (Str2Reg "QQ"))) (RegexConcat (RegexStar (RegexUnion (Str2Reg "RRR") (Str2Reg "SSS"))) (RegexConcat (RegexPlus (RegexUnion (Str2Reg "TTT") (Str2Reg "U"))) (RegexConcat (RegexPlus (RegexPlus (Str2Reg "VV"))) (RegexConcat (RegexPlus (RegexStar (Str2Reg "WW"))) (RegexConcat (RegexPlus (RegexUnion (Str2Reg "XX") (Str2Reg "YYY"))) (RegexConcat (RegexUnion (RegexPlus (Str2Reg "ZZZ")) (RegexPlus (Str2Reg "!!"))) (RegexConcat (RegexUnion (RegexStar (Str2Reg "\"\"")) (RegexStar (Str2Reg "##"))) (RegexConcat (RegexPlus (RegexStar (Str2Reg "$$$"))) (RegexConcat (RegexUnion (RegexUnion (Str2Reg "%%%") (Str2Reg "&&&")) (RegexUnion (Str2Reg "''") (Str2Reg "((("))) (RegexConcat (RegexUnion (RegexUnion (Str2Reg "))") (Str2Reg "***")) (RegexUnion (Str2Reg "+") (Str2Reg ",,,"))) (RegexConcat (RegexUnion (RegexPlus (Str2Reg "--")) (RegexPlus (Str2Reg "..."))) (RegexConcat (RegexUnion (RegexPlus (Str2Reg "///")) (RegexPlus (Str2Reg ":"))) (RegexConcat (RegexUnion (RegexStar (Str2Reg ";;;")) (RegexStar (Str2Reg "<<"))) (RegexConcat (RegexStar (RegexStar (Str2Reg "=="))) (RegexConcat (RegexPlus (RegexPlus (Str2Reg ">"))) (RegexConcat (RegexUnion (RegexPlus (Str2Reg "?")) (RegexPlus (Str2Reg "@@"))) (RegexConcat (RegexPlus (RegexPlus (Str2Reg "[["))) (RegexConcat (RegexPlus (RegexUnion (Str2Reg "\\\\") (Str2Reg "]]]"))) (RegexConcat (RegexPlus (RegexUnion (Str2Reg "^^^") (Str2Reg "___"))) (RegexConcat (RegexUnion (RegexUnion (Str2Reg "``") (Str2Reg "{")) (RegexUnion (Str2Reg "||") (Str2Reg "}}"))) (RegexConcat (RegexUnion (RegexPlus (Str2Reg "~~~")) (RegexPlus (Str2Reg "0"))) (RegexConcat (RegexStar (RegexPlus (Str2Reg "11"))) (RegexConcat (RegexUnion (RegexStar (Str2Reg "22")) (RegexStar (Str2Reg "333"))) (RegexConcat (RegexStar (RegexPlus (Str2Reg "4"))) (RegexConcat (RegexUnion (RegexUnion (Str2Reg "55") (Str2Reg "66")) (RegexUnion (Str2Reg "7") (Str2Reg "888"))) (RegexConcat (RegexStar (RegexPlus (Str2Reg "9"))) (RegexConcat (RegexStar (RegexStar (Str2Reg "aa"))) (RegexConcat (RegexPlus (RegexPlus (Str2Reg "b"))) (RegexConcat (RegexPlus (RegexStar (Str2Reg "ccc"))) (RegexConcat (RegexPlus (RegexUnion (Str2Reg "ddd") (Str2Reg "eee"))) (RegexConcat (RegexStar (RegexPlus (Str2Reg "ff"))) (RegexConcat (RegexStar (RegexPlus (Str2Reg "ggg"))) (RegexConcat (RegexStar (RegexPlus (Str2Reg "h"))) (RegexConcat (RegexPlus (RegexPlus (Str2Reg "iii"))) (RegexConcat (RegexPlus (RegexUnion (Str2Reg "j") (Str2Reg "kkk"))) (RegexConcat (RegexUnion (RegexUnion (Str2Reg "ll") (Str2Reg "mmm")) (RegexUnion (Str2Reg "nn") (Str2Reg "oo"))) (RegexConcat (RegexPlus (RegexUnion (Str2Reg "pp") (Str2Reg "qqq"))) (RegexConcat (RegexPlus (RegexStar (Str2Reg "rr"))) (RegexConcat (RegexUnion (RegexStar (Str2Reg "s")) (RegexStar (Str2Reg "t"))) (RegexConcat (RegexPlus (RegexStar (Str2Reg "u"))) (RegexConcat (RegexPlus (RegexUnion (Str2Reg "vv") (Str2Reg "w"))) (RegexConcat (RegexUnion (RegexStar (Str2Reg "xx")) (RegexStar (Str2Reg "yyy"))) (RegexConcat (RegexStar (RegexStar (Str2Reg "zz"))) (RegexConcat (RegexUnion (RegexUnion (Str2Reg "AAA") (Str2Reg "BB")) (RegexUnion (Str2Reg "CCC") (Str2Reg "DD"))) (RegexConcat (RegexStar (RegexPlus (Str2Reg "EE"))) (RegexConcat (RegexPlus (RegexUnion (Str2Reg "FF") (Str2Reg "GGG"))) (RegexConcat (RegexStar (RegexPlus (Str2Reg "HHH"))) (RegexStar (RegexPlus (Str2Reg "I")))))))))))))))))))))))))))))))))))))))))))))))))))))))))))))))))))))))))))))))))
(check-sat)